maximize
OBJ:100x0 + 100x1 + 100x2 + 100x3 + 100x4 + 100x5 + 100x6 + 100x7 + 100x8 + 100x9 + 100x10 + 100x11 + 100x12 + 100x13 + 100x14 + 100x15 + 100x16 + 100x17 + 100x18 + 100x19 + 100x20 + 100x21 + 100x22 + 100x23 + 100x24 + 100x25 + 100x26 + 100x27 + 100x28 + 100x29 + 100x30 + 100x31 + 100x32 + 100x33 + 100x34 + 100x35 + 100x36 + 100x37 + 100x38 + 100x39 + 100x40 + 100x41 + 100x42 + 100x43 + 100x44 + 100x45 + 100x46 + 100x47 + 100x48 + 100x49 + 100x50 + 100x51 + 100x52 + 100x53 + 100x54 + 100x55 + 100x56 + 100x57 + 100x58 + 100x59 + 100x60 + 100x61 + 100x62 + 100x63 + 100x64 + 100x65 + 100x66 - y15_21 - y55_57 - y18_35 - y0_5 - y29_41 - y48_54 - y29_50 - y29_59 - y21_55 - y25_34 - y10_54 - y44_56 - y2_50 - y10_63 - y51_64 - y2_59 - y3_24 - y43_60 - y14_33 - y17_44 - y7_21 - y17_53 - y18_30 - y36_66 - y17_62 - y21_32 - y29_45 - y40_63 - y10_31 - y2_27 - y10_40 - y3_10 - y10_58 - y3_19 - y32_55 - y22_32 - y3_28 - y14_28 - y32_64 - y35_60 - y47_52 - y36_61 - y9_44 - y28_57 - y9_53 - y17_66 - y28_66 - y9_62 - y10_26 - y2_22 - y54_60 - y2_31 - y25_33 - y10_44 - y2_40 - y32_41 - y2_49 - y43_50 - y43_59 - y13_55 - y24_55 - y17_25 - y36_38 - y17_34 - y7_11 - y36_56 - y17_52 - y47_65 - y9_48 - y28_61 - y21_22 - y50_58 - y29_35 - y21_40 - y21_49 - y39_48 - y10_21 - y10_30 - y31_62 - y10_39 - y12_58 - y32_45 - y14_18 - y16_37 - y32_63 - y16_46 - y35_59 - y16_55 - y17_20 - y1_66 - y16_64 - y5_36 - y28_38 - y28_56 - y5_63 - y6_28 - y27_60 - y50_62 - y42_58 - y39_43 - y2_3 - y10_16 - y31_48 - y10_25 - y2_21 - y20_57 - y31_57 - y12_53 - y2_30 - y4_49 - y32_40 - y13_36 - y16_41 - y16_50 - y35_63 - y9_11 - y38_65 - y9_38 - y9_47 - y58_61 - y27_55 - y6_32 - y42_53 - y27_64 - y0_56 - y11_56 - y31_34 - y2_7 - y12_39 - y31_52 - y31_61 - y4_44 - y1_29 - y4_62 - y16_27 - y43_53 - y16_36 - y24_49 - y35_49 - y1_56 - y46_55 - y1_65 - y38_51 - y17_28 - y46_64 - y38_60 - y49_60 - y17_37 - y27_41 - y6_18 - y30_46 - y50_61 - y0_51 - y20_29 - y39_42 - y23_34 - y2_11 - y20_47 - y39_60 - y12_43 - y20_56 - y4_39 - y12_52 - y13_17 - y12_61 - y13_26 - y32_39 - y16_22 - y1_33 - y24_44 - y35_44 - y1_51 - y5_12 - y38_46 - y15_53 - y26_53 - y38_55 - y0_37 - y30_50 - y0_46 - y11_46 - y8_59 - y30_59 - y42_61 - y12_20 - y20_33 - y0_64 - y12_29 - y39_46 - y31_42 - y12_38 - y23_38 - y31_51 - y1_10 - y4_43 - y12_56 - y45_53 - y24_30 - y53_66 - y22_60 - y34_62 - y37_58 - y1_46 - y38_41 - y15_66 - y7_62 - y8_27 - y19_36 - y30_36 - y27_49 - y11_32 - y0_41 - y0_50 - y12_15 - y19_63 - y23_24 - y20_37 - y4_20 - y33_65 - y13_16 - y34_48 - y45_48 - y1_23 - y16_21 - y22_55 - y22_64 - y34_66 - y3_60 - y14_60 - y15_34 - y26_43 - y46_58 - y57_58 - y26_52 - y18_48 - y15_61 - y38_63 - y11_18 - y8_31 - y27_44 - y19_49 - y30_49 - y41_46 - y4_15 - y12_28 - y23_28 - y44_60 - y12_37 - y23_37 - y1_9 - y34_43 - y53_56 - y22_50 - y45_52 - y34_61 - y45_61 - y3_64 - y14_64 - y18_25 - y15_38 - y26_38 - y38_40 - y38_49 - y7_43 - y8_17 - y7_61 - y19_26 - y27_39 - y11_22 - y19_44 - y30_44 - y11_49 - y41_50 - y60_63 - y4_10 - y33_46 - y44_46 - y52_59 - y44_64 - y1_4 - y1_13 - y34_47 - y3_41 - y34_56 - y22_63 - y3_59 - y15_24 - y18_20 - y7_38 - y18_38 - y15_51 - y8_12 - y8_21 - y11_17 - y29_53 - y40_53 - y29_62 - y11_35 - y4_5 - y41_54 - y52_54 - y44_50 - y41_63 - y2_44 - y37_38 - y14_45 - y36_60 - y59_62 - y18_42 - y29_39 - y8_16 - y40_48 - y48_61 - y21_44 - y0_21 - y29_57 - y40_57 - y11_30 - y29_66 - y41_49 - y25_32 - y10_43 - y44_54 - y25_50 - y10_61 - y3_22 - y14_22 - y22_35 - y2_66 - y3_31 - y14_31 - y36_46 - y15_23 - y15_32 - y17_51 - y26_32 - y28_51 - y28_60 - y8_11 - y29_43 - y48_65 - y21_66 - y41_44 - y33_49 - y3_8 - y2_52 - y3_17 - y14_17 - y22_30 - y32_53 - y14_26 - y32_62 - y14_44 - y36_41 - y15_18 - y59_61 - y9_42 - y17_55 - y9_51 - y6_27 - y29_38 - y48_51 - y21_34 - y21_43 - y10_15 - y54_58 - y10_33 - y25_31 - y33_44 - y51_52 - y3_12 - y13_53 - y14_30 - y13_62 - y24_62 - y55_58 - y28_41 - y47_54 - y5_48 - y28_50 - y9_46 - y17_59 - y5_57 - y5_66 - y21_29 - y21_38 - y21_47 - y2_6 - y39_55 - y2_15 - y10_28 - y62_66 - y20_60 - y31_60 - y2_33 - y25_35 - y32_34 - y13_39 - y3_16 - y14_16 - y32_52 - y43_52 - y14_25 - y32_61 - y35_57 - y35_66 - y16_62 - y9_23 - y6_17 - y9_50 - y5_61 - y9_59 - y21_33 - y31_46 - y10_23 - y31_55 - y54_57 - y12_51 - y20_64 - y12_60 - y2_37 - y3_11 - y13_52 - y16_66 - y28_31 - y5_47 - y42_51 - y0_63 - y11_63 - y2_5 - y20_41 - y31_41 - y2_23 - y4_42 - y31_59 - y12_55 - y32_33 - y13_29 - y51_55 - y1_36 - y35_38 - y16_34 - y1_45 - y24_56 - y35_56 - y65_66 - y9_13 - y16_61 - y17_26 - y57_62 - y5_33 - y28_35 - y6_16 - y6_25 - y27_57 - y42_55 - y27_66 - y19_62 - y30_62 - y31_36 - y12_32 - y23_32 - y31_45 - y2_18 - y20_54 - y12_59 - y13_24 - y53_60 - y32_37 - y32_46 - y1_40 - y16_38 - y24_51 - y35_51 - y16_47 - y5_28 - y17_30 - y26_60 - y5_37 - y9_35 - y27_34 - y7_65 - y27_43 - y6_20 - y8_39 - y50_54 - y8_48 - y30_48 - y27_61 - y50_63 - y8_57 - y30_57 - y42_59 - y11_53 - y30_66 - y20_31 - y11_62 - y12_27 - y23_27 - y2_4 - y4_23 - y20_40 - y23_36 - y31_40 - y23_45 - y1_8 - y12_54 - y53_55 - y24_28 - y1_35 - y24_37 - y1_44 - y16_42 - y46_52 - y9_12 - y18_51 - y38_66 - y49_66 - y8_25 - y27_38 - y8_34 - y19_34 - y30_43 - y42_45 - y27_56 - y30_52 - y0_48 - y8_61 - y19_61 - y30_61 - y60_62 - y20_35 - y12_31 - y12_40 - y12_49 - y13_14 - y23_49 - y1_21 - y34_64 - y37_60 - y5_9 - y15_41 - y7_46 - y18_46 - y7_64 - y8_38 - y30_38 - y27_51 - y8_47 - y8_56 - y41_53 - y4_13 - y11_61 - y41_62 - y4_22 - y33_58 - y4_31 - y1_7 - y13_18 - y22_48 - y37_55 - y22_66 - y26_36 - y38_47 - y26_54 - y38_56 - y26_63 - y27_28 - y19_24 - y27_37 - y11_20 - y11_29 - y29_65 - y19_42 - y0_38 - y30_51 - y11_47 - y12_21 - y41_57 - y52_57 - y33_53 - y23_30 - y52_66 - y25_58 - y4_35 - y1_11 - y2_65 - y1_20 - y3_39 - y53_58 - y45_54 - y56_63 - y3_66 - y37_49 - y7_45 - y26_58 - y0_6 - y7_54 - y18_63 - y19_37 - y11_42 - y41_43 - y33_39 - y60_65 - y4_12 - y33_48 - y52_61 - y25_44 - y4_21 - y10_55 - y33_57 - y2_51 - y44_57 - y3_34 - y14_34 - y45_49 - y3_43 - y14_43 - y56_58 - y15_17 - y59_60 - y15_35 - y26_35 - y18_31 - y7_40 - y18_40 - y0_1 - y7_49 - y18_49 - y48_50 - y0_19 - y6_53 - y6_62 - y11_28 - y21_60 - y41_56 - y4_16 - y52_65 - y3_20 - y14_20 - y34_35 - y25_66 - y14_29 - y22_42 - y37_40 - y22_51 - y3_47 - y7_8 - y3_56
 Subject to
C1: x0+x1-y0_1 <=1 
C2: x0+x2 <=1 
C3: x0+x4 <=1 
C4: x0+x5-y0_5 <=1 
C5: x0+x6-y0_6 <=1 
C6: x0+x7 <=1 
C7: x0+x12 <=1 
C8: x0+x14 <=1 
C9: x0+x16 <=1 
C10: x0+x17 <=1 
C11: x0+x19-y0_19 <=1 
C12: x0+x21-y0_21 <=1 
C13: x0+x23 <=1 
C14: x0+x26 <=1 
C15: x0+x29 <=1 
C16: x0+x30 <=1 
C17: x0+x32 <=1 
C18: x0+x34 <=1 
C19: x0+x36 <=1 
C20: x0+x37-y0_37 <=1 
C21: x0+x38-y0_38 <=1 
C22: x0+x39 <=1 
C23: x0+x41-y0_41 <=1 
C24: x0+x42 <=1 
C25: x0+x43 <=1 
C26: x0+x44 <=1 
C27: x0+x46-y0_46 <=1 
C28: x0+x48-y0_48 <=1 
C29: x0+x50-y0_50 <=1 
C30: x0+x51-y0_51 <=1 
C31: x0+x56-y0_56 <=1 
C32: x0+x57 <=1 
C33: x0+x59 <=1 
C34: x0+x60 <=1 
C35: x0+x61 <=1 
C36: x0+x63-y0_63 <=1 
C37: x0+x64-y0_64 <=1 
C38: x0+x65 <=1 
C39: x1+x4-y1_4 <=1 
C40: x1+x5 <=1 
C41: x1+x7-y1_7 <=1 
C42: x1+x8-y1_8 <=1 
C43: x1+x9-y1_9 <=1 
C44: x1+x10-y1_10 <=1 
C45: x1+x11-y1_11 <=1 
C46: x1+x12 <=1 
C47: x1+x13-y1_13 <=1 
C48: x1+x20-y1_20 <=1 
C49: x1+x21-y1_21 <=1 
C50: x1+x23-y1_23 <=1 
C51: x1+x25 <=1 
C52: x1+x26 <=1 
C53: x1+x28 <=1 
C54: x1+x29-y1_29 <=1 
C55: x1+x31 <=1 
C56: x1+x33-y1_33 <=1 
C57: x1+x35-y1_35 <=1 
C58: x1+x36-y1_36 <=1 
C59: x1+x37 <=1 
C60: x1+x38 <=1 
C61: x1+x40-y1_40 <=1 
C62: x1+x41 <=1 
C63: x1+x44-y1_44 <=1 
C64: x1+x45-y1_45 <=1 
C65: x1+x46-y1_46 <=1 
C66: x1+x47 <=1 
C67: x1+x49 <=1 
C68: x1+x50 <=1 
C69: x1+x51-y1_51 <=1 
C70: x1+x52 <=1 
C71: x1+x53 <=1 
C72: x1+x55 <=1 
C73: x1+x56-y1_56 <=1 
C74: x1+x62 <=1 
C75: x1+x65-y1_65 <=1 
C76: x1+x66-y1_66 <=1 
C77: x2+x3-y2_3 <=1 
C78: x2+x4-y2_4 <=1 
C79: x2+x5-y2_5 <=1 
C80: x2+x6-y2_6 <=1 
C81: x2+x7-y2_7 <=1 
C82: x2+x9 <=1 
C83: x2+x11-y2_11 <=1 
C84: x2+x13 <=1 
C85: x2+x15-y2_15 <=1 
C86: x2+x17 <=1 
C87: x2+x18-y2_18 <=1 
C88: x2+x21-y2_21 <=1 
C89: x2+x22-y2_22 <=1 
C90: x2+x23-y2_23 <=1 
C91: x2+x25 <=1 
C92: x2+x26 <=1 
C93: x2+x27-y2_27 <=1 
C94: x2+x28 <=1 
C95: x2+x29 <=1 
C96: x2+x30-y2_30 <=1 
C97: x2+x31-y2_31 <=1 
C98: x2+x32 <=1 
C99: x2+x33-y2_33 <=1 
C100: x2+x34 <=1 
C101: x2+x37-y2_37 <=1 
C102: x2+x40-y2_40 <=1 
C103: x2+x43 <=1 
C104: x2+x44-y2_44 <=1 
C105: x2+x49-y2_49 <=1 
C106: x2+x50-y2_50 <=1 
C107: x2+x51-y2_51 <=1 
C108: x2+x52-y2_52 <=1 
C109: x2+x53 <=1 
C110: x2+x54 <=1 
C111: x2+x55 <=1 
C112: x2+x56 <=1 
C113: x2+x59-y2_59 <=1 
C114: x2+x61 <=1 
C115: x2+x62 <=1 
C116: x2+x64 <=1 
C117: x2+x65-y2_65 <=1 
C118: x2+x66-y2_66 <=1 
C119: x3+x6 <=1 
C120: x3+x7 <=1 
C121: x3+x8-y3_8 <=1 
C122: x3+x9 <=1 
C123: x3+x10-y3_10 <=1 
C124: x3+x11-y3_11 <=1 
C125: x3+x12-y3_12 <=1 
C126: x3+x13 <=1 
C127: x3+x14 <=1 
C128: x3+x16-y3_16 <=1 
C129: x3+x17-y3_17 <=1 
C130: x3+x18 <=1 
C131: x3+x19-y3_19 <=1 
C132: x3+x20-y3_20 <=1 
C133: x3+x21 <=1 
C134: x3+x22-y3_22 <=1 
C135: x3+x24-y3_24 <=1 
C136: x3+x27 <=1 
C137: x3+x28-y3_28 <=1 
C138: x3+x30 <=1 
C139: x3+x31-y3_31 <=1 
C140: x3+x32 <=1 
C141: x3+x34-y3_34 <=1 
C142: x3+x36 <=1 
C143: x3+x37 <=1 
C144: x3+x38 <=1 
C145: x3+x39-y3_39 <=1 
C146: x3+x40 <=1 
C147: x3+x41-y3_41 <=1 
C148: x3+x43-y3_43 <=1 
C149: x3+x45 <=1 
C150: x3+x47-y3_47 <=1 
C151: x3+x50 <=1 
C152: x3+x51 <=1 
C153: x3+x55 <=1 
C154: x3+x56-y3_56 <=1 
C155: x3+x59-y3_59 <=1 
C156: x3+x60-y3_60 <=1 
C157: x3+x63 <=1 
C158: x3+x64-y3_64 <=1 
C159: x3+x66-y3_66 <=1 
C160: x4+x5-y4_5 <=1 
C161: x4+x9 <=1 
C162: x4+x10-y4_10 <=1 
C163: x4+x11 <=1 
C164: x4+x12-y4_12 <=1 
C165: x4+x13-y4_13 <=1 
C166: x4+x14 <=1 
C167: x4+x15-y4_15 <=1 
C168: x4+x16-y4_16 <=1 
C169: x4+x17 <=1 
C170: x4+x20-y4_20 <=1 
C171: x4+x21-y4_21 <=1 
C172: x4+x22-y4_22 <=1 
C173: x4+x23-y4_23 <=1 
C174: x4+x26 <=1 
C175: x4+x28 <=1 
C176: x4+x29 <=1 
C177: x4+x31-y4_31 <=1 
C178: x4+x34 <=1 
C179: x4+x35-y4_35 <=1 
C180: x4+x37 <=1 
C181: x4+x39-y4_39 <=1 
C182: x4+x41 <=1 
C183: x4+x42-y4_42 <=1 
C184: x4+x43-y4_43 <=1 
C185: x4+x44-y4_44 <=1 
C186: x4+x45 <=1 
C187: x4+x46 <=1 
C188: x4+x48 <=1 
C189: x4+x49-y4_49 <=1 
C190: x4+x52 <=1 
C191: x4+x53 <=1 
C192: x4+x59 <=1 
C193: x4+x62-y4_62 <=1 
C194: x4+x64 <=1 
C195: x4+x66 <=1 
C196: x5+x8 <=1 
C197: x5+x9-y5_9 <=1 
C198: x5+x12-y5_12 <=1 
C199: x5+x13 <=1 
C200: x5+x14 <=1 
C201: x5+x15 <=1 
C202: x5+x16 <=1 
C203: x5+x17 <=1 
C204: x5+x21 <=1 
C205: x5+x22 <=1 
C206: x5+x25 <=1 
C207: x5+x26 <=1 
C208: x5+x27 <=1 
C209: x5+x28-y5_28 <=1 
C210: x5+x29 <=1 
C211: x5+x30 <=1 
C212: x5+x31 <=1 
C213: x5+x32 <=1 
C214: x5+x33-y5_33 <=1 
C215: x5+x34 <=1 
C216: x5+x36-y5_36 <=1 
C217: x5+x37-y5_37 <=1 
C218: x5+x39 <=1 
C219: x5+x40 <=1 
C220: x5+x42 <=1 
C221: x5+x46 <=1 
C222: x5+x47-y5_47 <=1 
C223: x5+x48-y5_48 <=1 
C224: x5+x49 <=1 
C225: x5+x50 <=1 
C226: x5+x51 <=1 
C227: x5+x52 <=1 
C228: x5+x54 <=1 
C229: x5+x56 <=1 
C230: x5+x57-y5_57 <=1 
C231: x5+x59 <=1 
C232: x5+x60 <=1 
C233: x5+x61-y5_61 <=1 
C234: x5+x63-y5_63 <=1 
C235: x5+x64 <=1 
C236: x5+x66-y5_66 <=1 
C237: x6+x16-y6_16 <=1 
C238: x6+x17-y6_17 <=1 
C239: x6+x18-y6_18 <=1 
C240: x6+x20-y6_20 <=1 
C241: x6+x25-y6_25 <=1 
C242: x6+x26 <=1 
C243: x6+x27-y6_27 <=1 
C244: x6+x28-y6_28 <=1 
C245: x6+x29 <=1 
C246: x6+x31 <=1 
C247: x6+x32-y6_32 <=1 
C248: x6+x40 <=1 
C249: x6+x44 <=1 
C250: x6+x53-y6_53 <=1 
C251: x6+x56 <=1 
C252: x6+x58 <=1 
C253: x6+x62-y6_62 <=1 
C254: x6+x63 <=1 
C255: x7+x8-y7_8 <=1 
C256: x7+x11-y7_11 <=1 
C257: x7+x16 <=1 
C258: x7+x18 <=1 
C259: x7+x21-y7_21 <=1 
C260: x7+x28 <=1 
C261: x7+x31 <=1 
C262: x7+x35 <=1 
C263: x7+x37 <=1 
C264: x7+x38-y7_38 <=1 
C265: x7+x39 <=1 
C266: x7+x40-y7_40 <=1 
C267: x7+x42 <=1 
C268: x7+x43-y7_43 <=1 
C269: x7+x45-y7_45 <=1 
C270: x7+x46-y7_46 <=1 
C271: x7+x47 <=1 
C272: x7+x48 <=1 
C273: x7+x49-y7_49 <=1 
C274: x7+x50 <=1 
C275: x7+x52 <=1 
C276: x7+x54-y7_54 <=1 
C277: x7+x57 <=1 
C278: x7+x58 <=1 
C279: x7+x61-y7_61 <=1 
C280: x7+x62-y7_62 <=1 
C281: x7+x64-y7_64 <=1 
C282: x7+x65-y7_65 <=1 
C283: x8+x11-y8_11 <=1 
C284: x8+x12-y8_12 <=1 
C285: x8+x13 <=1 
C286: x8+x15 <=1 
C287: x8+x16-y8_16 <=1 
C288: x8+x17-y8_17 <=1 
C289: x8+x20 <=1 
C290: x8+x21-y8_21 <=1 
C291: x8+x23 <=1 
C292: x8+x24 <=1 
C293: x8+x25-y8_25 <=1 
C294: x8+x26 <=1 
C295: x8+x27-y8_27 <=1 
C296: x8+x29 <=1 
C297: x8+x30 <=1 
C298: x8+x31-y8_31 <=1 
C299: x8+x33 <=1 
C300: x8+x34-y8_34 <=1 
C301: x8+x38-y8_38 <=1 
C302: x8+x39-y8_39 <=1 
C303: x8+x42 <=1 
C304: x8+x46 <=1 
C305: x8+x47-y8_47 <=1 
C306: x8+x48-y8_48 <=1 
C307: x8+x49 <=1 
C308: x8+x52 <=1 
C309: x8+x53 <=1 
C310: x8+x55 <=1 
C311: x8+x56-y8_56 <=1 
C312: x8+x57-y8_57 <=1 
C313: x8+x59-y8_59 <=1 
C314: x8+x60 <=1 
C315: x8+x61-y8_61 <=1 
C316: x8+x63 <=1 
C317: x8+x64 <=1 
C318: x8+x66 <=1 
C319: x9+x10 <=1 
C320: x9+x11-y9_11 <=1 
C321: x9+x12-y9_12 <=1 
C322: x9+x13-y9_13 <=1 
C323: x9+x16 <=1 
C324: x9+x20 <=1 
C325: x9+x21 <=1 
C326: x9+x23-y9_23 <=1 
C327: x9+x24 <=1 
C328: x9+x25 <=1 
C329: x9+x26 <=1 
C330: x9+x30 <=1 
C331: x9+x32 <=1 
C332: x9+x33 <=1 
C333: x9+x35-y9_35 <=1 
C334: x9+x36 <=1 
C335: x9+x37 <=1 
C336: x9+x38-y9_38 <=1 
C337: x9+x42-y9_42 <=1 
C338: x9+x44-y9_44 <=1 
C339: x9+x46-y9_46 <=1 
C340: x9+x47-y9_47 <=1 
C341: x9+x48-y9_48 <=1 
C342: x9+x50-y9_50 <=1 
C343: x9+x51-y9_51 <=1 
C344: x9+x52 <=1 
C345: x9+x53-y9_53 <=1 
C346: x9+x55 <=1 
C347: x9+x59-y9_59 <=1 
C348: x9+x60 <=1 
C349: x9+x61 <=1 
C350: x9+x62-y9_62 <=1 
C351: x10+x12 <=1 
C352: x10+x15-y10_15 <=1 
C353: x10+x16-y10_16 <=1 
C354: x10+x17 <=1 
C355: x10+x18 <=1 
C356: x10+x21-y10_21 <=1 
C357: x10+x23-y10_23 <=1 
C358: x10+x24 <=1 
C359: x10+x25-y10_25 <=1 
C360: x10+x26-y10_26 <=1 
C361: x10+x28-y10_28 <=1 
C362: x10+x30-y10_30 <=1 
C363: x10+x31-y10_31 <=1 
C364: x10+x33-y10_33 <=1 
C365: x10+x35 <=1 
C366: x10+x37 <=1 
C367: x10+x39-y10_39 <=1 
C368: x10+x40-y10_40 <=1 
C369: x10+x41 <=1 
C370: x10+x42 <=1 
C371: x10+x43-y10_43 <=1 
C372: x10+x44-y10_44 <=1 
C373: x10+x47 <=1 
C374: x10+x48 <=1 
C375: x10+x52 <=1 
C376: x10+x53 <=1 
C377: x10+x54-y10_54 <=1 
C378: x10+x55-y10_55 <=1 
C379: x10+x57 <=1 
C380: x10+x58-y10_58 <=1 
C381: x10+x60 <=1 
C382: x10+x61-y10_61 <=1 
C383: x10+x62 <=1 
C384: x10+x63-y10_63 <=1 
C385: x10+x64 <=1 
C386: x10+x66 <=1 
C387: x11+x13 <=1 
C388: x11+x17-y11_17 <=1 
C389: x11+x18-y11_18 <=1 
C390: x11+x19 <=1 
C391: x11+x20-y11_20 <=1 
C392: x11+x21 <=1 
C393: x11+x22-y11_22 <=1 
C394: x11+x23 <=1 
C395: x11+x27 <=1 
C396: x11+x28-y11_28 <=1 
C397: x11+x29-y11_29 <=1 
C398: x11+x30-y11_30 <=1 
C399: x11+x32-y11_32 <=1 
C400: x11+x33 <=1 
C401: x11+x34 <=1 
C402: x11+x35-y11_35 <=1 
C403: x11+x36 <=1 
C404: x11+x38 <=1 
C405: x11+x39 <=1 
C406: x11+x42-y11_42 <=1 
C407: x11+x43 <=1 
C408: x11+x44 <=1 
C409: x11+x46-y11_46 <=1 
C410: x11+x47-y11_47 <=1 
C411: x11+x49-y11_49 <=1 
C412: x11+x50 <=1 
C413: x11+x53-y11_53 <=1 
C414: x11+x56-y11_56 <=1 
C415: x11+x57 <=1 
C416: x11+x58 <=1 
C417: x11+x59 <=1 
C418: x11+x61-y11_61 <=1 
C419: x11+x62-y11_62 <=1 
C420: x11+x63-y11_63 <=1 
C421: x11+x64 <=1 
C422: x11+x65 <=1 
C423: x12+x14 <=1 
C424: x12+x15-y12_15 <=1 
C425: x12+x20-y12_20 <=1 
C426: x12+x21-y12_21 <=1 
C427: x12+x22 <=1 
C428: x12+x23 <=1 
C429: x12+x24 <=1 
C430: x12+x25 <=1 
C431: x12+x27-y12_27 <=1 
C432: x12+x28-y12_28 <=1 
C433: x12+x29-y12_29 <=1 
C434: x12+x31-y12_31 <=1 
C435: x12+x32-y12_32 <=1 
C436: x12+x35 <=1 
C437: x12+x37-y12_37 <=1 
C438: x12+x38-y12_38 <=1 
C439: x12+x39-y12_39 <=1 
C440: x12+x40-y12_40 <=1 
C441: x12+x42 <=1 
C442: x12+x43-y12_43 <=1 
C443: x12+x49-y12_49 <=1 
C444: x12+x51-y12_51 <=1 
C445: x12+x52-y12_52 <=1 
C446: x12+x53-y12_53 <=1 
C447: x12+x54-y12_54 <=1 
C448: x12+x55-y12_55 <=1 
C449: x12+x56-y12_56 <=1 
C450: x12+x58-y12_58 <=1 
C451: x12+x59-y12_59 <=1 
C452: x12+x60-y12_60 <=1 
C453: x12+x61-y12_61 <=1 
C454: x12+x64 <=1 
C455: x13+x14-y13_14 <=1 
C456: x13+x16-y13_16 <=1 
C457: x13+x17-y13_17 <=1 
C458: x13+x18-y13_18 <=1 
C459: x13+x22 <=1 
C460: x13+x24-y13_24 <=1 
C461: x13+x26-y13_26 <=1 
C462: x13+x29-y13_29 <=1 
C463: x13+x30 <=1 
C464: x13+x33 <=1 
C465: x13+x35 <=1 
C466: x13+x36-y13_36 <=1 
C467: x13+x37 <=1 
C468: x13+x39-y13_39 <=1 
C469: x13+x40 <=1 
C470: x13+x43 <=1 
C471: x13+x47 <=1 
C472: x13+x51 <=1 
C473: x13+x52-y13_52 <=1 
C474: x13+x53-y13_53 <=1 
C475: x13+x55-y13_55 <=1 
C476: x13+x56 <=1 
C477: x13+x59 <=1 
C478: x13+x62-y13_62 <=1 
C479: x13+x64 <=1 
C480: x14+x16-y14_16 <=1 
C481: x14+x17-y14_17 <=1 
C482: x14+x18-y14_18 <=1 
C483: x14+x20-y14_20 <=1 
C484: x14+x22-y14_22 <=1 
C485: x14+x23 <=1 
C486: x14+x24 <=1 
C487: x14+x25-y14_25 <=1 
C488: x14+x26-y14_26 <=1 
C489: x14+x28-y14_28 <=1 
C490: x14+x29-y14_29 <=1 
C491: x14+x30-y14_30 <=1 
C492: x14+x31-y14_31 <=1 
C493: x14+x33-y14_33 <=1 
C494: x14+x34-y14_34 <=1 
C495: x14+x36 <=1 
C496: x14+x37 <=1 
C497: x14+x42 <=1 
C498: x14+x43-y14_43 <=1 
C499: x14+x44-y14_44 <=1 
C500: x14+x45-y14_45 <=1 
C501: x14+x46 <=1 
C502: x14+x47 <=1 
C503: x14+x52 <=1 
C504: x14+x53 <=1 
C505: x14+x55 <=1 
C506: x14+x58 <=1 
C507: x14+x59 <=1 
C508: x14+x60-y14_60 <=1 
C509: x14+x62 <=1 
C510: x14+x64-y14_64 <=1 
C511: x14+x65 <=1 
C512: x14+x66 <=1 
C513: x15+x16 <=1 
C514: x15+x17-y15_17 <=1 
C515: x15+x18-y15_18 <=1 
C516: x15+x19 <=1 
C517: x15+x21-y15_21 <=1 
C518: x15+x23-y15_23 <=1 
C519: x15+x24-y15_24 <=1 
C520: x15+x27 <=1 
C521: x15+x32-y15_32 <=1 
C522: x15+x33 <=1 
C523: x15+x34-y15_34 <=1 
C524: x15+x35-y15_35 <=1 
C525: x15+x36 <=1 
C526: x15+x38-y15_38 <=1 
C527: x15+x41-y15_41 <=1 
C528: x15+x45 <=1 
C529: x15+x49 <=1 
C530: x15+x50 <=1 
C531: x15+x51-y15_51 <=1 
C532: x15+x53-y15_53 <=1 
C533: x15+x61-y15_61 <=1 
C534: x15+x63 <=1 
C535: x15+x64 <=1 
C536: x15+x66-y15_66 <=1 
C537: x16+x18 <=1 
C538: x16+x19 <=1 
C539: x16+x20 <=1 
C540: x16+x21-y16_21 <=1 
C541: x16+x22-y16_22 <=1 
C542: x16+x23 <=1 
C543: x16+x25 <=1 
C544: x16+x26 <=1 
C545: x16+x27-y16_27 <=1 
C546: x16+x28 <=1 
C547: x16+x30 <=1 
C548: x16+x33 <=1 
C549: x16+x34-y16_34 <=1 
C550: x16+x36-y16_36 <=1 
C551: x16+x37-y16_37 <=1 
C552: x16+x38-y16_38 <=1 
C553: x16+x39 <=1 
C554: x16+x40 <=1 
C555: x16+x41-y16_41 <=1 
C556: x16+x42-y16_42 <=1 
C557: x16+x45 <=1 
C558: x16+x46-y16_46 <=1 
C559: x16+x47-y16_47 <=1 
C560: x16+x48 <=1 
C561: x16+x49 <=1 
C562: x16+x50-y16_50 <=1 
C563: x16+x52 <=1 
C564: x16+x53 <=1 
C565: x16+x55-y16_55 <=1 
C566: x16+x56 <=1 
C567: x16+x58 <=1 
C568: x16+x60 <=1 
C569: x16+x61-y16_61 <=1 
C570: x16+x62-y16_62 <=1 
C571: x16+x63 <=1 
C572: x16+x64-y16_64 <=1 
C573: x16+x66-y16_66 <=1 
C574: x17+x20-y17_20 <=1 
C575: x17+x25-y17_25 <=1 
C576: x17+x26-y17_26 <=1 
C577: x17+x27 <=1 
C578: x17+x28-y17_28 <=1 
C579: x17+x29 <=1 
C580: x17+x30-y17_30 <=1 
C581: x17+x31 <=1 
C582: x17+x32 <=1 
C583: x17+x34-y17_34 <=1 
C584: x17+x35 <=1 
C585: x17+x37-y17_37 <=1 
C586: x17+x38 <=1 
C587: x17+x39 <=1 
C588: x17+x40 <=1 
C589: x17+x44-y17_44 <=1 
C590: x17+x45 <=1 
C591: x17+x49 <=1 
C592: x17+x51-y17_51 <=1 
C593: x17+x52-y17_52 <=1 
C594: x17+x53-y17_53 <=1 
C595: x17+x55-y17_55 <=1 
C596: x17+x56 <=1 
C597: x17+x59-y17_59 <=1 
C598: x17+x60 <=1 
C599: x17+x61 <=1 
C600: x17+x62-y17_62 <=1 
C601: x17+x63 <=1 
C602: x17+x64 <=1 
C603: x17+x66-y17_66 <=1 
C604: x18+x20-y18_20 <=1 
C605: x18+x23 <=1 
C606: x18+x25-y18_25 <=1 
C607: x18+x26 <=1 
C608: x18+x27 <=1 
C609: x18+x28 <=1 
C610: x18+x30-y18_30 <=1 
C611: x18+x31-y18_31 <=1 
C612: x18+x33 <=1 
C613: x18+x34 <=1 
C614: x18+x35-y18_35 <=1 
C615: x18+x36 <=1 
C616: x18+x37 <=1 
C617: x18+x38-y18_38 <=1 
C618: x18+x39 <=1 
C619: x18+x40-y18_40 <=1 
C620: x18+x42-y18_42 <=1 
C621: x18+x43 <=1 
C622: x18+x46-y18_46 <=1 
C623: x18+x47 <=1 
C624: x18+x48-y18_48 <=1 
C625: x18+x49-y18_49 <=1 
C626: x18+x50 <=1 
C627: x18+x51-y18_51 <=1 
C628: x18+x57 <=1 
C629: x18+x61 <=1 
C630: x18+x63-y18_63 <=1 
C631: x18+x66 <=1 
C632: x19+x20 <=1 
C633: x19+x23 <=1 
C634: x19+x24-y19_24 <=1 
C635: x19+x26-y19_26 <=1 
C636: x19+x28 <=1 
C637: x19+x32 <=1 
C638: x19+x34-y19_34 <=1 
C639: x19+x35 <=1 
C640: x19+x36-y19_36 <=1 
C641: x19+x37-y19_37 <=1 
C642: x19+x38 <=1 
C643: x19+x41 <=1 
C644: x19+x42-y19_42 <=1 
C645: x19+x44-y19_44 <=1 
C646: x19+x46 <=1 
C647: x19+x47 <=1 
C648: x19+x48 <=1 
C649: x19+x49-y19_49 <=1 
C650: x19+x51 <=1 
C651: x19+x53 <=1 
C652: x19+x57 <=1 
C653: x19+x61-y19_61 <=1 
C654: x19+x62-y19_62 <=1 
C655: x19+x63-y19_63 <=1 
C656: x20+x21 <=1 
C657: x20+x25 <=1 
C658: x20+x26 <=1 
C659: x20+x29-y20_29 <=1 
C660: x20+x31-y20_31 <=1 
C661: x20+x32 <=1 
C662: x20+x33-y20_33 <=1 
C663: x20+x34 <=1 
C664: x20+x35-y20_35 <=1 
C665: x20+x37-y20_37 <=1 
C666: x20+x38 <=1 
C667: x20+x40-y20_40 <=1 
C668: x20+x41-y20_41 <=1 
C669: x20+x42 <=1 
C670: x20+x43 <=1 
C671: x20+x47-y20_47 <=1 
C672: x20+x49 <=1 
C673: x20+x53 <=1 
C674: x20+x54-y20_54 <=1 
C675: x20+x56-y20_56 <=1 
C676: x20+x57-y20_57 <=1 
C677: x20+x58 <=1 
C678: x20+x59 <=1 
C679: x20+x60-y20_60 <=1 
C680: x20+x63 <=1 
C681: x20+x64-y20_64 <=1 
C682: x21+x22-y21_22 <=1 
C683: x21+x23 <=1 
C684: x21+x26 <=1 
C685: x21+x29-y21_29 <=1 
C686: x21+x30 <=1 
C687: x21+x32-y21_32 <=1 
C688: x21+x33-y21_33 <=1 
C689: x21+x34-y21_34 <=1 
C690: x21+x35 <=1 
C691: x21+x36 <=1 
C692: x21+x37 <=1 
C693: x21+x38-y21_38 <=1 
C694: x21+x40-y21_40 <=1 
C695: x21+x41 <=1 
C696: x21+x43-y21_43 <=1 
C697: x21+x44-y21_44 <=1 
C698: x21+x46 <=1 
C699: x21+x47-y21_47 <=1 
C700: x21+x49-y21_49 <=1 
C701: x21+x51 <=1 
C702: x21+x53 <=1 
C703: x21+x54 <=1 
C704: x21+x55-y21_55 <=1 
C705: x21+x57 <=1 
C706: x21+x59 <=1 
C707: x21+x60-y21_60 <=1 
C708: x21+x66-y21_66 <=1 
C709: x22+x23 <=1 
C710: x22+x27 <=1 
C711: x22+x30-y22_30 <=1 
C712: x22+x31 <=1 
C713: x22+x32-y22_32 <=1 
C714: x22+x35-y22_35 <=1 
C715: x22+x36 <=1 
C716: x22+x38 <=1 
C717: x22+x39 <=1 
C718: x22+x40 <=1 
C719: x22+x42-y22_42 <=1 
C720: x22+x45 <=1 
C721: x22+x47 <=1 
C722: x22+x48-y22_48 <=1 
C723: x22+x49 <=1 
C724: x22+x50-y22_50 <=1 
C725: x22+x51-y22_51 <=1 
C726: x22+x52 <=1 
C727: x22+x53 <=1 
C728: x22+x55-y22_55 <=1 
C729: x22+x57 <=1 
C730: x22+x58 <=1 
C731: x22+x59 <=1 
C732: x22+x60-y22_60 <=1 
C733: x22+x62 <=1 
C734: x22+x63-y22_63 <=1 
C735: x22+x64-y22_64 <=1 
C736: x22+x66-y22_66 <=1 
C737: x23+x24-y23_24 <=1 
C738: x23+x27-y23_27 <=1 
C739: x23+x28-y23_28 <=1 
C740: x23+x29 <=1 
C741: x23+x30-y23_30 <=1 
C742: x23+x32-y23_32 <=1 
C743: x23+x34-y23_34 <=1 
C744: x23+x35 <=1 
C745: x23+x36-y23_36 <=1 
C746: x23+x37-y23_37 <=1 
C747: x23+x38-y23_38 <=1 
C748: x23+x39 <=1 
C749: x23+x41 <=1 
C750: x23+x45-y23_45 <=1 
C751: x23+x46 <=1 
C752: x23+x48 <=1 
C753: x23+x49-y23_49 <=1 
C754: x23+x50 <=1 
C755: x23+x53 <=1 
C756: x23+x56 <=1 
C757: x23+x57 <=1 
C758: x23+x60 <=1 
C759: x23+x61 <=1 
C760: x23+x62 <=1 
C761: x23+x63 <=1 
C762: x23+x65 <=1 
C763: x23+x66 <=1 
C764: x24+x25 <=1 
C765: x24+x27 <=1 
C766: x24+x28-y24_28 <=1 
C767: x24+x30-y24_30 <=1 
C768: x24+x32 <=1 
C769: x24+x35 <=1 
C770: x24+x36 <=1 
C771: x24+x37-y24_37 <=1 
C772: x24+x40 <=1 
C773: x24+x43 <=1 
C774: x24+x44-y24_44 <=1 
C775: x24+x45 <=1 
C776: x24+x49-y24_49 <=1 
C777: x24+x51-y24_51 <=1 
C778: x24+x52 <=1 
C779: x24+x53 <=1 
C780: x24+x54 <=1 
C781: x24+x55-y24_55 <=1 
C782: x24+x56-y24_56 <=1 
C783: x24+x61 <=1 
C784: x24+x62-y24_62 <=1 
C785: x25+x26 <=1 
C786: x25+x28 <=1 
C787: x25+x30 <=1 
C788: x25+x31-y25_31 <=1 
C789: x25+x32-y25_32 <=1 
C790: x25+x33-y25_33 <=1 
C791: x25+x34-y25_34 <=1 
C792: x25+x35-y25_35 <=1 
C793: x25+x38 <=1 
C794: x25+x39 <=1 
C795: x25+x40 <=1 
C796: x25+x44-y25_44 <=1 
C797: x25+x46 <=1 
C798: x25+x50-y25_50 <=1 
C799: x25+x53 <=1 
C800: x25+x56 <=1 
C801: x25+x58-y25_58 <=1 
C802: x25+x61 <=1 
C803: x25+x63 <=1 
C804: x25+x64 <=1 
C805: x25+x66-y25_66 <=1 
C806: x26+x29 <=1 
C807: x26+x30 <=1 
C808: x26+x31 <=1 
C809: x26+x32-y26_32 <=1 
C810: x26+x33 <=1 
C811: x26+x35-y26_35 <=1 
C812: x26+x36-y26_36 <=1 
C813: x26+x38-y26_38 <=1 
C814: x26+x39 <=1 
C815: x26+x40 <=1 
C816: x26+x42 <=1 
C817: x26+x43-y26_43 <=1 
C818: x26+x45 <=1 
C819: x26+x46 <=1 
C820: x26+x47 <=1 
C821: x26+x51 <=1 
C822: x26+x52-y26_52 <=1 
C823: x26+x53-y26_53 <=1 
C824: x26+x54-y26_54 <=1 
C825: x26+x55 <=1 
C826: x26+x56 <=1 
C827: x26+x58-y26_58 <=1 
C828: x26+x60-y26_60 <=1 
C829: x26+x61 <=1 
C830: x26+x63-y26_63 <=1 
C831: x26+x65 <=1 
C832: x26+x66 <=1 
C833: x27+x28-y27_28 <=1 
C834: x27+x32 <=1 
C835: x27+x34-y27_34 <=1 
C836: x27+x35 <=1 
C837: x27+x37-y27_37 <=1 
C838: x27+x38-y27_38 <=1 
C839: x27+x39-y27_39 <=1 
C840: x27+x40 <=1 
C841: x27+x41-y27_41 <=1 
C842: x27+x42 <=1 
C843: x27+x43-y27_43 <=1 
C844: x27+x44-y27_44 <=1 
C845: x27+x45 <=1 
C846: x27+x48 <=1 
C847: x27+x49-y27_49 <=1 
C848: x27+x51-y27_51 <=1 
C849: x27+x53 <=1 
C850: x27+x54 <=1 
C851: x27+x55-y27_55 <=1 
C852: x27+x56-y27_56 <=1 
C853: x27+x57-y27_57 <=1 
C854: x27+x60-y27_60 <=1 
C855: x27+x61-y27_61 <=1 
C856: x27+x64-y27_64 <=1 
C857: x27+x65 <=1 
C858: x27+x66-y27_66 <=1 
C859: x28+x31-y28_31 <=1 
C860: x28+x35-y28_35 <=1 
C861: x28+x37 <=1 
C862: x28+x38-y28_38 <=1 
C863: x28+x39 <=1 
C864: x28+x41-y28_41 <=1 
C865: x28+x46 <=1 
C866: x28+x47 <=1 
C867: x28+x49 <=1 
C868: x28+x50-y28_50 <=1 
C869: x28+x51-y28_51 <=1 
C870: x28+x55 <=1 
C871: x28+x56-y28_56 <=1 
C872: x28+x57-y28_57 <=1 
C873: x28+x58 <=1 
C874: x28+x60-y28_60 <=1 
C875: x28+x61-y28_61 <=1 
C876: x28+x65 <=1 
C877: x28+x66-y28_66 <=1 
C878: x29+x30 <=1 
C879: x29+x31 <=1 
C880: x29+x35-y29_35 <=1 
C881: x29+x36 <=1 
C882: x29+x38-y29_38 <=1 
C883: x29+x39-y29_39 <=1 
C884: x29+x40 <=1 
C885: x29+x41-y29_41 <=1 
C886: x29+x43-y29_43 <=1 
C887: x29+x45-y29_45 <=1 
C888: x29+x49 <=1 
C889: x29+x50-y29_50 <=1 
C890: x29+x52 <=1 
C891: x29+x53-y29_53 <=1 
C892: x29+x55 <=1 
C893: x29+x56 <=1 
C894: x29+x57-y29_57 <=1 
C895: x29+x58 <=1 
C896: x29+x59-y29_59 <=1 
C897: x29+x60 <=1 
C898: x29+x62-y29_62 <=1 
C899: x29+x63 <=1 
C900: x29+x64 <=1 
C901: x29+x65-y29_65 <=1 
C902: x29+x66-y29_66 <=1 
C903: x30+x33 <=1 
C904: x30+x35 <=1 
C905: x30+x36-y30_36 <=1 
C906: x30+x38-y30_38 <=1 
C907: x30+x39 <=1 
C908: x30+x40 <=1 
C909: x30+x41 <=1 
C910: x30+x42 <=1 
C911: x30+x43-y30_43 <=1 
C912: x30+x44-y30_44 <=1 
C913: x30+x46-y30_46 <=1 
C914: x30+x48-y30_48 <=1 
C915: x30+x49-y30_49 <=1 
C916: x30+x50-y30_50 <=1 
C917: x30+x51-y30_51 <=1 
C918: x30+x52-y30_52 <=1 
C919: x30+x54 <=1 
C920: x30+x55 <=1 
C921: x30+x57-y30_57 <=1 
C922: x30+x58 <=1 
C923: x30+x59-y30_59 <=1 
C924: x30+x61-y30_61 <=1 
C925: x30+x62-y30_62 <=1 
C926: x30+x63 <=1 
C927: x30+x64 <=1 
C928: x30+x66-y30_66 <=1 
C929: x31+x34-y31_34 <=1 
C930: x31+x36-y31_36 <=1 
C931: x31+x37 <=1 
C932: x31+x38 <=1 
C933: x31+x40-y31_40 <=1 
C934: x31+x41-y31_41 <=1 
C935: x31+x42-y31_42 <=1 
C936: x31+x43 <=1 
C937: x31+x44 <=1 
C938: x31+x45-y31_45 <=1 
C939: x31+x46-y31_46 <=1 
C940: x31+x47 <=1 
C941: x31+x48-y31_48 <=1 
C942: x31+x51-y31_51 <=1 
C943: x31+x52-y31_52 <=1 
C944: x31+x55-y31_55 <=1 
C945: x31+x56 <=1 
C946: x31+x57-y31_57 <=1 
C947: x31+x58 <=1 
C948: x31+x59-y31_59 <=1 
C949: x31+x60-y31_60 <=1 
C950: x31+x61-y31_61 <=1 
C951: x31+x62-y31_62 <=1 
C952: x31+x63 <=1 
C953: x31+x65 <=1 
C954: x31+x66 <=1 
C955: x32+x33-y32_33 <=1 
C956: x32+x34-y32_34 <=1 
C957: x32+x37-y32_37 <=1 
C958: x32+x39-y32_39 <=1 
C959: x32+x40-y32_40 <=1 
C960: x32+x41-y32_41 <=1 
C961: x32+x42 <=1 
C962: x32+x43 <=1 
C963: x32+x44 <=1 
C964: x32+x45-y32_45 <=1 
C965: x32+x46-y32_46 <=1 
C966: x32+x47 <=1 
C967: x32+x50 <=1 
C968: x32+x52-y32_52 <=1 
C969: x32+x53-y32_53 <=1 
C970: x32+x55-y32_55 <=1 
C971: x32+x57 <=1 
C972: x32+x58 <=1 
C973: x32+x59 <=1 
C974: x32+x61-y32_61 <=1 
C975: x32+x62-y32_62 <=1 
C976: x32+x63-y32_63 <=1 
C977: x32+x64-y32_64 <=1 
C978: x32+x66 <=1 
C979: x33+x36 <=1 
C980: x33+x37 <=1 
C981: x33+x38 <=1 
C982: x33+x39-y33_39 <=1 
C983: x33+x40 <=1 
C984: x33+x44-y33_44 <=1 
C985: x33+x46-y33_46 <=1 
C986: x33+x48-y33_48 <=1 
C987: x33+x49-y33_49 <=1 
C988: x33+x51 <=1 
C989: x33+x53-y33_53 <=1 
C990: x33+x54 <=1 
C991: x33+x56 <=1 
C992: x33+x57-y33_57 <=1 
C993: x33+x58-y33_58 <=1 
C994: x33+x63 <=1 
C995: x33+x64 <=1 
C996: x33+x65-y33_65 <=1 
C997: x34+x35-y34_35 <=1 
C998: x34+x36 <=1 
C999: x34+x39 <=1 
C1000: x34+x43-y34_43 <=1 
C1001: x34+x46 <=1 
C1002: x34+x47-y34_47 <=1 
C1003: x34+x48-y34_48 <=1 
C1004: x34+x49 <=1 
C1005: x34+x51 <=1 
C1006: x34+x52 <=1 
C1007: x34+x53 <=1 
C1008: x34+x54 <=1 
C1009: x34+x55 <=1 
C1010: x34+x56-y34_56 <=1 
C1011: x34+x59 <=1 
C1012: x34+x61-y34_61 <=1 
C1013: x34+x62-y34_62 <=1 
C1014: x34+x64-y34_64 <=1 
C1015: x34+x66-y34_66 <=1 
C1016: x35+x38-y35_38 <=1 
C1017: x35+x39 <=1 
C1018: x35+x40 <=1 
C1019: x35+x41 <=1 
C1020: x35+x44-y35_44 <=1 
C1021: x35+x47 <=1 
C1022: x35+x48 <=1 
C1023: x35+x49-y35_49 <=1 
C1024: x35+x51-y35_51 <=1 
C1025: x35+x56-y35_56 <=1 
C1026: x35+x57-y35_57 <=1 
C1027: x35+x58 <=1 
C1028: x35+x59-y35_59 <=1 
C1029: x35+x60-y35_60 <=1 
C1030: x35+x62 <=1 
C1031: x35+x63-y35_63 <=1 
C1032: x35+x66-y35_66 <=1 
C1033: x36+x37 <=1 
C1034: x36+x38-y36_38 <=1 
C1035: x36+x40 <=1 
C1036: x36+x41-y36_41 <=1 
C1037: x36+x42 <=1 
C1038: x36+x44 <=1 
C1039: x36+x45 <=1 
C1040: x36+x46-y36_46 <=1 
C1041: x36+x47 <=1 
C1042: x36+x49 <=1 
C1043: x36+x52 <=1 
C1044: x36+x54 <=1 
C1045: x36+x55 <=1 
C1046: x36+x56-y36_56 <=1 
C1047: x36+x57 <=1 
C1048: x36+x60-y36_60 <=1 
C1049: x36+x61-y36_61 <=1 
C1050: x36+x63 <=1 
C1051: x36+x64 <=1 
C1052: x36+x65 <=1 
C1053: x36+x66-y36_66 <=1 
C1054: x37+x38-y37_38 <=1 
C1055: x37+x40-y37_40 <=1 
C1056: x37+x42 <=1 
C1057: x37+x45 <=1 
C1058: x37+x48 <=1 
C1059: x37+x49-y37_49 <=1 
C1060: x37+x50 <=1 
C1061: x37+x51 <=1 
C1062: x37+x55-y37_55 <=1 
C1063: x37+x56 <=1 
C1064: x37+x58-y37_58 <=1 
C1065: x37+x59 <=1 
C1066: x37+x60-y37_60 <=1 
C1067: x37+x62 <=1 
C1068: x37+x64 <=1 
C1069: x37+x66 <=1 
C1070: x38+x39 <=1 
C1071: x38+x40-y38_40 <=1 
C1072: x38+x41-y38_41 <=1 
C1073: x38+x43 <=1 
C1074: x38+x44 <=1 
C1075: x38+x46-y38_46 <=1 
C1076: x38+x47-y38_47 <=1 
C1077: x38+x49-y38_49 <=1 
C1078: x38+x50 <=1 
C1079: x38+x51-y38_51 <=1 
C1080: x38+x52 <=1 
C1081: x38+x53 <=1 
C1082: x38+x54 <=1 
C1083: x38+x55-y38_55 <=1 
C1084: x38+x56-y38_56 <=1 
C1085: x38+x59 <=1 
C1086: x38+x60-y38_60 <=1 
C1087: x38+x61 <=1 
C1088: x38+x63-y38_63 <=1 
C1089: x38+x65-y38_65 <=1 
C1090: x38+x66-y38_66 <=1 
C1091: x39+x40 <=1 
C1092: x39+x42-y39_42 <=1 
C1093: x39+x43-y39_43 <=1 
C1094: x39+x44 <=1 
C1095: x39+x45 <=1 
C1096: x39+x46-y39_46 <=1 
C1097: x39+x47 <=1 
C1098: x39+x48-y39_48 <=1 
C1099: x39+x50 <=1 
C1100: x39+x51 <=1 
C1101: x39+x54 <=1 
C1102: x39+x55-y39_55 <=1 
C1103: x39+x56 <=1 
C1104: x39+x58 <=1 
C1105: x39+x60-y39_60 <=1 
C1106: x39+x66 <=1 
C1107: x40+x41 <=1 
C1108: x40+x42 <=1 
C1109: x40+x43 <=1 
C1110: x40+x44 <=1 
C1111: x40+x45 <=1 
C1112: x40+x46 <=1 
C1113: x40+x48-y40_48 <=1 
C1114: x40+x50 <=1 
C1115: x40+x51 <=1 
C1116: x40+x53-y40_53 <=1 
C1117: x40+x57-y40_57 <=1 
C1118: x40+x58 <=1 
C1119: x40+x59 <=1 
C1120: x40+x61 <=1 
C1121: x40+x63-y40_63 <=1 
C1122: x40+x66 <=1 
C1123: x41+x42 <=1 
C1124: x41+x43-y41_43 <=1 
C1125: x41+x44-y41_44 <=1 
C1126: x41+x46-y41_46 <=1 
C1127: x41+x47 <=1 
C1128: x41+x48 <=1 
C1129: x41+x49-y41_49 <=1 
C1130: x41+x50-y41_50 <=1 
C1131: x41+x52 <=1 
C1132: x41+x53-y41_53 <=1 
C1133: x41+x54-y41_54 <=1 
C1134: x41+x56-y41_56 <=1 
C1135: x41+x57-y41_57 <=1 
C1136: x41+x60 <=1 
C1137: x41+x62-y41_62 <=1 
C1138: x41+x63-y41_63 <=1 
C1139: x41+x64 <=1 
C1140: x41+x65 <=1 
C1141: x42+x44 <=1 
C1142: x42+x45-y42_45 <=1 
C1143: x42+x47 <=1 
C1144: x42+x50 <=1 
C1145: x42+x51-y42_51 <=1 
C1146: x42+x53-y42_53 <=1 
C1147: x42+x55-y42_55 <=1 
C1148: x42+x56 <=1 
C1149: x42+x58-y42_58 <=1 
C1150: x42+x59-y42_59 <=1 
C1151: x42+x61-y42_61 <=1 
C1152: x42+x62 <=1 
C1153: x42+x63 <=1 
C1154: x42+x64 <=1 
C1155: x42+x66 <=1 
C1156: x43+x44 <=1 
C1157: x43+x46 <=1 
C1158: x43+x47 <=1 
C1159: x43+x48 <=1 
C1160: x43+x49 <=1 
C1161: x43+x50-y43_50 <=1 
C1162: x43+x52-y43_52 <=1 
C1163: x43+x53-y43_53 <=1 
C1164: x43+x54 <=1 
C1165: x43+x58 <=1 
C1166: x43+x59-y43_59 <=1 
C1167: x43+x60-y43_60 <=1 
C1168: x43+x61 <=1 
C1169: x43+x62 <=1 
C1170: x43+x63 <=1 
C1171: x43+x65 <=1 
C1172: x44+x45 <=1 
C1173: x44+x46-y44_46 <=1 
C1174: x44+x49 <=1 
C1175: x44+x50-y44_50 <=1 
C1176: x44+x52 <=1 
C1177: x44+x54-y44_54 <=1 
C1178: x44+x55 <=1 
C1179: x44+x56-y44_56 <=1 
C1180: x44+x57-y44_57 <=1 
C1181: x44+x59 <=1 
C1182: x44+x60-y44_60 <=1 
C1183: x44+x62 <=1 
C1184: x44+x63 <=1 
C1185: x44+x64-y44_64 <=1 
C1186: x44+x66 <=1 
C1187: x45+x48-y45_48 <=1 
C1188: x45+x49-y45_49 <=1 
C1189: x45+x50 <=1 
C1190: x45+x52-y45_52 <=1 
C1191: x45+x53-y45_53 <=1 
C1192: x45+x54-y45_54 <=1 
C1193: x45+x59 <=1 
C1194: x45+x61-y45_61 <=1 
C1195: x45+x64 <=1 
C1196: x45+x66 <=1 
C1197: x46+x47 <=1 
C1198: x46+x48 <=1 
C1199: x46+x50 <=1 
C1200: x46+x51 <=1 
C1201: x46+x52-y46_52 <=1 
C1202: x46+x53 <=1 
C1203: x46+x55-y46_55 <=1 
C1204: x46+x58-y46_58 <=1 
C1205: x46+x59 <=1 
C1206: x46+x61 <=1 
C1207: x46+x62 <=1 
C1208: x46+x63 <=1 
C1209: x46+x64-y46_64 <=1 
C1210: x46+x66 <=1 
C1211: x47+x52-y47_52 <=1 
C1212: x47+x54-y47_54 <=1 
C1213: x47+x55 <=1 
C1214: x47+x59 <=1 
C1215: x47+x60 <=1 
C1216: x47+x62 <=1 
C1217: x47+x64 <=1 
C1218: x47+x65-y47_65 <=1 
C1219: x48+x49 <=1 
C1220: x48+x50-y48_50 <=1 
C1221: x48+x51-y48_51 <=1 
C1222: x48+x52 <=1 
C1223: x48+x53 <=1 
C1224: x48+x54-y48_54 <=1 
C1225: x48+x57 <=1 
C1226: x48+x61-y48_61 <=1 
C1227: x48+x63 <=1 
C1228: x48+x64 <=1 
C1229: x48+x65-y48_65 <=1 
C1230: x49+x50 <=1 
C1231: x49+x51 <=1 
C1232: x49+x52 <=1 
C1233: x49+x53 <=1 
C1234: x49+x54 <=1 
C1235: x49+x57 <=1 
C1236: x49+x59 <=1 
C1237: x49+x60-y49_60 <=1 
C1238: x49+x62 <=1 
C1239: x49+x63 <=1 
C1240: x49+x64 <=1 
C1241: x49+x65 <=1 
C1242: x49+x66-y49_66 <=1 
C1243: x50+x51 <=1 
C1244: x50+x52 <=1 
C1245: x50+x54-y50_54 <=1 
C1246: x50+x55 <=1 
C1247: x50+x56 <=1 
C1248: x50+x58-y50_58 <=1 
C1249: x50+x61-y50_61 <=1 
C1250: x50+x62-y50_62 <=1 
C1251: x50+x63-y50_63 <=1 
C1252: x51+x52-y51_52 <=1 
C1253: x51+x55-y51_55 <=1 
C1254: x51+x57 <=1 
C1255: x51+x60 <=1 
C1256: x51+x64-y51_64 <=1 
C1257: x51+x66 <=1 
C1258: x52+x53 <=1 
C1259: x52+x54-y52_54 <=1 
C1260: x52+x57-y52_57 <=1 
C1261: x52+x58 <=1 
C1262: x52+x59-y52_59 <=1 
C1263: x52+x60 <=1 
C1264: x52+x61-y52_61 <=1 
C1265: x52+x62 <=1 
C1266: x52+x63 <=1 
C1267: x52+x65-y52_65 <=1 
C1268: x52+x66-y52_66 <=1 
C1269: x53+x54 <=1 
C1270: x53+x55-y53_55 <=1 
C1271: x53+x56-y53_56 <=1 
C1272: x53+x58-y53_58 <=1 
C1273: x53+x59 <=1 
C1274: x53+x60-y53_60 <=1 
C1275: x53+x61 <=1 
C1276: x53+x62 <=1 
C1277: x53+x63 <=1 
C1278: x53+x64 <=1 
C1279: x53+x65 <=1 
C1280: x53+x66-y53_66 <=1 
C1281: x54+x55 <=1 
C1282: x54+x56 <=1 
C1283: x54+x57-y54_57 <=1 
C1284: x54+x58-y54_58 <=1 
C1285: x54+x60-y54_60 <=1 
C1286: x54+x62 <=1 
C1287: x55+x57-y55_57 <=1 
C1288: x55+x58-y55_58 <=1 
C1289: x55+x59 <=1 
C1290: x55+x60 <=1 
C1291: x55+x61 <=1 
C1292: x55+x62 <=1 
C1293: x55+x63 <=1 
C1294: x55+x64 <=1 
C1295: x55+x66 <=1 
C1296: x56+x58-y56_58 <=1 
C1297: x56+x59 <=1 
C1298: x56+x60 <=1 
C1299: x56+x61 <=1 
C1300: x56+x62 <=1 
C1301: x56+x63-y56_63 <=1 
C1302: x56+x64 <=1 
C1303: x57+x58-y57_58 <=1 
C1304: x57+x59 <=1 
C1305: x57+x61 <=1 
C1306: x57+x62-y57_62 <=1 
C1307: x57+x64 <=1 
C1308: x58+x59 <=1 
C1309: x58+x61-y58_61 <=1 
C1310: x58+x62 <=1 
C1311: x58+x63 <=1 
C1312: x58+x64 <=1 
C1313: x59+x60-y59_60 <=1 
C1314: x59+x61-y59_61 <=1 
C1315: x59+x62-y59_62 <=1 
C1316: x59+x65 <=1 
C1317: x59+x66 <=1 
C1318: x60+x62-y60_62 <=1 
C1319: x60+x63-y60_63 <=1 
C1320: x60+x64 <=1 
C1321: x60+x65-y60_65 <=1 
C1322: x60+x66 <=1 
C1323: x61+x64 <=1 
C1324: x61+x66 <=1 
C1325: x62+x66-y62_66 <=1 
C1326: x64+x65 <=1 
C1327: x65+x66-y65_66 <=1 

binary
x0
x1
x2
x3
x4
x5
x6
x7
x8
x9
x10
x11
x12
x13
x14
x15
x16
x17
x18
x19
x20
x21
x22
x23
x24
x25
x26
x27
x28
x29
x30
x31
x32
x33
x34
x35
x36
x37
x38
x39
x40
x41
x42
x43
x44
x45
x46
x47
x48
x49
x50
x51
x52
x53
x54
x55
x56
x57
x58
x59
x60
x61
x62
x63
x64
x65
x66
